NAME : amz1970.133667_132167.tour
COMMENT : Cost = 133667_132167
COMMENT : Found by LKH-AMZ [Keld Helsgaun] Sun May 11 15:04:25 2025
COMMENT : TW viol.: 0 #: 0
TYPE : TOUR
DIMENSION : 180
TOUR_SECTION
40
13
8
94
18
101
54
65
85
72
61
165
155
49
135
7
51
79
17
71
138
162
103
98
93
145
38
159
148
5
141
163
70
23
14
104
109
108
102
170
4
114
19
2
144
56
16
6
1
64
52
67
42
34
9
143
179
111
161
20
62
47
3
142
29
48
100
153
87
83
24
120
41
89
84
28
30
10
172
82
35
86
158
147
33
73
45
60
110
129
118
55
15
140
167
115
78
31
164
132
63
95
105
99
26
91
27
139
178
169
149
57
25
117
157
136
176
156
152
97
22
112
174
88
77
81
69
116
125
74
127
151
119
113
130
36
68
175
21
37
32
96
53
123
177
107
166
92
126
58
12
76
134
133
59
121
137
75
131
154
39
90
124
11
171
46
44
106
128
80
168
180
146
50
160
43
122
66
173
150
-1
EOF
